webassembly/ejemplos_results/folder3_json_53.txt
value = 3;
fgas = [1, 1, 1];
fsize = [1, 1, 1];
states = 
[|   in_0, in_1, '.', '.', '.', '.', '.'
 | 's(0)', in_1, '.', '.', '.', '.', '.'
 | 's(1)', in_0, '.', '.', '.', '.', '.'
 | 's(2)',  '.', '.', '.', '.', '.', '.'
 |];
register_states = 
[| '.', '.', '.'
 | '.', '.', '.'
 | '.', '.', '.'
 | '.', '.', '.'
 |];
program = [O('i32.load8_u_0'), O('i32.sub_0'), O('i32.load_2')];
% time elapsed: 0.04 s
----------
==========
% time elapsed: 0.04 s
% [value > 2]
